generated by phonopy
   1.0
    16.3892255234551847    0.0000000000000000    0.0000000000000000
     0.0000000000000000   16.3892255234551847    0.0000000000000000
     0.0000000000000000    0.0000000000000000   16.3892255234551847
Ba Mg W O
  64   32   32  192
Direct
  0.1250000000000000  0.1250000000000000  0.3750000000000000
  0.6250000000000000  0.1250000000000000  0.3750000000000000
  0.1250000000000000  0.6250000000000000  0.3750000000000000
  0.6250000000000000  0.6250000000000000  0.3750000000000000
  0.1250000000000000  0.1250000000000000  0.8750000000000000
  0.6250000000000000  0.1250000000000000  0.8750000000000000
  0.1250000000000000  0.6250000000000000  0.8750000000000000
  0.6250000000000000  0.6250000000000000  0.8750000000000000
  0.3750000000000000  0.3750000000000000  0.1250000000000000
  0.8750000000000000  0.3750000000000000  0.1250000000000000
  0.3750000000000000  0.8750000000000000  0.1250000000000000
  0.8750000000000000  0.8750000000000000  0.1250000000000000
  0.3750000000000000  0.3750000000000000  0.6250000000000000
  0.8750000000000000  0.3750000000000000  0.6250000000000000
  0.3750000000000000  0.8750000000000000  0.6250000000000000
  0.8750000000000000  0.8750000000000000  0.6250000000000000
  0.3750000000000000  0.3750000000000000  0.3750000000000000
  0.8750000000000000  0.3750000000000000  0.3750000000000000
  0.3750000000000000  0.8750000000000000  0.3750000000000000
  0.8750000000000000  0.8750000000000000  0.3750000000000000
  0.3750000000000000  0.3750000000000000  0.8750000000000000
  0.8750000000000000  0.3750000000000000  0.8750000000000000
  0.3750000000000000  0.8750000000000000  0.8750000000000000
  0.8750000000000000  0.8750000000000000  0.8750000000000000
  0.1250000000000000  0.1250000000000000  0.1250000000000000
  0.6250000000000000  0.1250000000000000  0.1250000000000000
  0.1250000000000000  0.6250000000000000  0.1250000000000000
  0.6250000000000000  0.6250000000000000  0.1250000000000000
  0.1250000000000000  0.1250000000000000  0.6250000000000000
  0.6250000000000000  0.1250000000000000  0.6250000000000000
  0.1250000000000000  0.6250000000000000  0.6250000000000000
  0.6250000000000000  0.6250000000000000  0.6250000000000000
  0.3750000000000000  0.1250000000000000  0.1250000000000000
  0.8750000000000000  0.1250000000000000  0.1250000000000000
  0.3750000000000000  0.6250000000000000  0.1250000000000000
  0.8750000000000000  0.6250000000000000  0.1250000000000000
  0.3750000000000000  0.1250000000000000  0.6250000000000000
  0.8750000000000000  0.1250000000000000  0.6250000000000000
  0.3750000000000000  0.6250000000000000  0.6250000000000000
  0.8750000000000000  0.6250000000000000  0.6250000000000000
  0.1250000000000000  0.3750000000000000  0.3750000000000000
  0.6250000000000000  0.3750000000000000  0.3750000000000000
  0.1250000000000000  0.8750000000000000  0.3750000000000000
  0.6250000000000000  0.8750000000000000  0.3750000000000000
  0.1250000000000000  0.3750000000000000  0.8750000000000000
  0.6250000000000000  0.3750000000000000  0.8750000000000000
  0.1250000000000000  0.8750000000000000  0.8750000000000000
  0.6250000000000000  0.8750000000000000  0.8750000000000000
  0.1250000000000000  0.3750000000000000  0.1250000000000000
  0.6250000000000000  0.3750000000000000  0.1250000000000000
  0.1250000000000000  0.8750000000000000  0.1250000000000000
  0.6250000000000000  0.8750000000000000  0.1250000000000000
  0.1250000000000000  0.3750000000000000  0.6250000000000000
  0.6250000000000000  0.3750000000000000  0.6250000000000000
  0.1250000000000000  0.8750000000000000  0.6250000000000000
  0.6250000000000000  0.8750000000000000  0.6250000000000000
  0.3750000000000000  0.1250000000000000  0.3750000000000000
  0.8750000000000000  0.1250000000000000  0.3750000000000000
  0.3750000000000000  0.6250000000000000  0.3750000000000000
  0.8750000000000000  0.6250000000000000  0.3750000000000000
  0.3750000000000000  0.1250000000000000  0.8750000000000000
  0.8750000000000000  0.1250000000000000  0.8750000000000000
  0.3750000000000000  0.6250000000000000  0.8750000000000000
  0.8750000000000000  0.6250000000000000  0.8750000000000000
  0.0000000000000000  0.0000000000000000  0.0000000000000000
  0.5000000000000000  0.0000000000000000  0.0000000000000000
  0.0000000000000000  0.5000000000000000  0.0000000000000000
  0.5000000000000000  0.5000000000000000  0.0000000000000000
  0.0000000000000000  0.0000000000000000  0.5000000000000000
  0.5000000000000000  0.0000000000000000  0.5000000000000000
  0.0000000000000000  0.5000000000000000  0.5000000000000000
  0.5000000000000000  0.5000000000000000  0.5000000000000000
  0.0000000000000000  0.2500000000000000  0.2500000000000000
  0.5000000000000000  0.2500000000000000  0.2500000000000000
  0.0000000000000000  0.7500000000000000  0.2500000000000000
  0.5000000000000000  0.7500000000000000  0.2500000000000000
  0.0000000000000000  0.2500000000000000  0.7500000000000000
  0.5000000000000000  0.2500000000000000  0.7500000000000000
  0.0000000000000000  0.7500000000000000  0.7500000000000000
  0.5000000000000000  0.7500000000000000  0.7500000000000000
  0.2500000000000000  0.0000000000000000  0.2500000000000000
  0.7500000000000000  0.0000000000000000  0.2500000000000000
  0.2500000000000000  0.5000000000000000  0.2500000000000000
  0.7500000000000000  0.5000000000000000  0.2500000000000000
  0.2500000000000000  0.0000000000000000  0.7500000000000000
  0.7500000000000000  0.0000000000000000  0.7500000000000000
  0.2500000000000000  0.5000000000000000  0.7500000000000000
  0.7500000000000000  0.5000000000000000  0.7500000000000000
  0.2500000000000000  0.2500000000000000  0.0000000000000000
  0.7500000000000000  0.2500000000000000  0.0000000000000000
  0.2500000000000000  0.7500000000000000  0.0000000000000000
  0.7500000000000000  0.7500000000000000  0.0000000000000000
  0.2500000000000000  0.2500000000000000  0.5000000000000000
  0.7500000000000000  0.2500000000000000  0.5000000000000000
  0.2500000000000000  0.7500000000000000  0.5000000000000000
  0.7500000000000000  0.7500000000000000  0.5000000000000000
  0.0000000000000000  0.0000000000000000  0.2500000000000000
  0.5000000000000000  0.0000000000000000  0.2500000000000000
  0.0000000000000000  0.5000000000000000  0.2500000000000000
  0.5000000000000000  0.5000000000000000  0.2500000000000000
  0.0000000000000000  0.0000000000000000  0.7500000000000000
  0.5000000000000000  0.0000000000000000  0.7500000000000000
  0.0000000000000000  0.5000000000000000  0.7500000000000000
  0.5000000000000000  0.5000000000000000  0.7500000000000000
  0.2500000000000000  0.0000000000000000  0.0000000000000000
  0.7500000000000000  0.0000000000000000  0.0000000000000000
  0.2500000000000000  0.5000000000000000  0.0000000000000000
  0.7500000000000000  0.5000000000000000  0.0000000000000000
  0.2500000000000000  0.0000000000000000  0.5000000000000000
  0.7500000000000000  0.0000000000000000  0.5000000000000000
  0.2500000000000000  0.5000000000000000  0.5000000000000000
  0.7500000000000000  0.5000000000000000  0.5000000000000000
  0.0000000000000000  0.2500000000000000  0.0000000000000000
  0.5000000000000000  0.2500000000000000  0.0000000000000000
  0.0000000000000000  0.7500000000000000  0.0000000000000000
  0.5000000000000000  0.7500000000000000  0.0000000000000000
  0.0000000000000000  0.2500000000000000  0.5000000000000000
  0.5000000000000000  0.2500000000000000  0.5000000000000000
  0.0000000000000000  0.7500000000000000  0.5000000000000000
  0.5000000000000000  0.7500000000000000  0.5000000000000000
  0.2500000000000000  0.2500000000000000  0.2500000000000000
  0.7500000000000000  0.2500000000000000  0.2500000000000000
  0.2500000000000000  0.7500000000000000  0.2500000000000000
  0.7500000000000000  0.7500000000000000  0.2500000000000000
  0.2500000000000000  0.2500000000000000  0.7500000000000000
  0.7500000000000000  0.2500000000000000  0.7500000000000000
  0.2500000000000000  0.7500000000000000  0.7500000000000000
  0.7500000000000000  0.7500000000000000  0.7500000000000000
  0.0000000000000000  0.0000000000000000  0.3691123438744379
  0.5000000000000000  0.0000000000000000  0.3691123438744379
  0.0000000000000000  0.5000000000000000  0.3691123438744379
  0.5000000000000000  0.5000000000000000  0.3691123438744379
  0.0000000000000000  0.0000000000000000  0.8691123438744379
  0.5000000000000000  0.0000000000000000  0.8691123438744379
  0.0000000000000000  0.5000000000000000  0.8691123438744379
  0.5000000000000000  0.5000000000000000  0.8691123438744379
  0.0000000000000000  0.0000000000000000  0.1308876636255645
  0.5000000000000000  0.0000000000000000  0.1308876636255645
  0.0000000000000000  0.5000000000000000  0.1308876636255645
  0.5000000000000000  0.5000000000000000  0.1308876636255645
  0.0000000000000000  0.0000000000000000  0.6308876636255645
  0.5000000000000000  0.0000000000000000  0.6308876636255645
  0.0000000000000000  0.5000000000000000  0.6308876636255645
  0.5000000000000000  0.5000000000000000  0.6308876636255645
  0.3691123438744379  0.0000000000000000  0.0000000000000000
  0.8691123438744379  0.0000000000000000  0.0000000000000000
  0.3691123438744379  0.5000000000000000  0.0000000000000000
  0.8691123438744379  0.5000000000000000  0.0000000000000000
  0.3691123438744379  0.0000000000000000  0.5000000000000000
  0.8691123438744379  0.0000000000000000  0.5000000000000000
  0.3691123438744379  0.5000000000000000  0.5000000000000000
  0.8691123438744379  0.5000000000000000  0.5000000000000000
  0.1308876636255645  0.0000000000000000  0.0000000000000000
  0.6308876636255645  0.0000000000000000  0.0000000000000000
  0.1308876636255645  0.5000000000000000  0.0000000000000000
  0.6308876636255645  0.5000000000000000  0.0000000000000000
  0.1308876636255645  0.0000000000000000  0.5000000000000000
  0.6308876636255645  0.0000000000000000  0.5000000000000000
  0.1308876636255645  0.5000000000000000  0.5000000000000000
  0.6308876636255645  0.5000000000000000  0.5000000000000000
  0.0000000000000000  0.3691123438744379  0.0000000000000000
  0.5000000000000000  0.3691123438744379  0.0000000000000000
  0.0000000000000000  0.8691123438744379  0.0000000000000000
  0.5000000000000000  0.8691123438744379  0.0000000000000000
  0.0000000000000000  0.3691123438744379  0.5000000000000000
  0.5000000000000000  0.3691123438744379  0.5000000000000000
  0.0000000000000000  0.8691123438744379  0.5000000000000000
  0.5000000000000000  0.8691123438744379  0.5000000000000000
  0.0000000000000000  0.1308876636255645  0.0000000000000000
  0.5000000000000000  0.1308876636255645  0.0000000000000000
  0.0000000000000000  0.6308876636255645  0.0000000000000000
  0.5000000000000000  0.6308876636255645  0.0000000000000000
  0.0000000000000000  0.1308876636255645  0.5000000000000000
  0.5000000000000000  0.1308876636255645  0.5000000000000000
  0.0000000000000000  0.6308876636255645  0.5000000000000000
  0.5000000000000000  0.6308876636255645  0.5000000000000000
  0.0000000000000000  0.2500000000000000  0.1191123438744380
  0.5000000000000000  0.2500000000000000  0.1191123438744380
  0.0000000000000000  0.7500000000000000  0.1191123438744380
  0.5000000000000000  0.7500000000000000  0.1191123438744380
  0.0000000000000000  0.2500000000000000  0.6191123438744380
  0.5000000000000000  0.2500000000000000  0.6191123438744380
  0.0000000000000000  0.7500000000000000  0.6191123438744380
  0.5000000000000000  0.7500000000000000  0.6191123438744380
  0.0000000000000000  0.2500000000000000  0.3808876561255621
  0.5000000000000000  0.2500000000000000  0.3808876561255621
  0.0000000000000000  0.7500000000000000  0.3808876561255621
  0.5000000000000000  0.7500000000000000  0.3808876561255621
  0.0000000000000000  0.2500000000000000  0.8808876561255621
  0.5000000000000000  0.2500000000000000  0.8808876561255621
  0.0000000000000000  0.7500000000000000  0.8808876561255621
  0.5000000000000000  0.7500000000000000  0.8808876561255621
  0.3691123438744379  0.2500000000000000  0.2500000000000000
  0.8691123438744379  0.2500000000000000  0.2500000000000000
  0.3691123438744379  0.7500000000000000  0.2500000000000000
  0.8691123438744379  0.7500000000000000  0.2500000000000000
  0.3691123438744379  0.2500000000000000  0.7500000000000000
  0.8691123438744379  0.2500000000000000  0.7500000000000000
  0.3691123438744379  0.7500000000000000  0.7500000000000000
  0.8691123438744379  0.7500000000000000  0.7500000000000000
  0.1308876636255645  0.2500000000000000  0.2500000000000000
  0.6308876636255645  0.2500000000000000  0.2500000000000000
  0.1308876636255645  0.7500000000000000  0.2500000000000000
  0.6308876636255645  0.7500000000000000  0.2500000000000000
  0.1308876636255645  0.2500000000000000  0.7500000000000000
  0.6308876636255645  0.2500000000000000  0.7500000000000000
  0.1308876636255645  0.7500000000000000  0.7500000000000000
  0.6308876636255645  0.7500000000000000  0.7500000000000000
  0.0000000000000000  0.1191123438744380  0.2500000000000000
  0.5000000000000000  0.1191123438744380  0.2500000000000000
  0.0000000000000000  0.6191123438744380  0.2500000000000000
  0.5000000000000000  0.6191123438744380  0.2500000000000000
  0.0000000000000000  0.1191123438744380  0.7500000000000000
  0.5000000000000000  0.1191123438744380  0.7500000000000000
  0.0000000000000000  0.6191123438744380  0.7500000000000000
  0.5000000000000000  0.6191123438744380  0.7500000000000000
  0.0000000000000000  0.3808876561255621  0.2500000000000000
  0.5000000000000000  0.3808876561255621  0.2500000000000000
  0.0000000000000000  0.8808876561255621  0.2500000000000000
  0.5000000000000000  0.8808876561255621  0.2500000000000000
  0.0000000000000000  0.3808876561255621  0.7500000000000000
  0.5000000000000000  0.3808876561255621  0.7500000000000000
  0.0000000000000000  0.8808876561255621  0.7500000000000000
  0.5000000000000000  0.8808876561255621  0.7500000000000000
  0.2500000000000000  0.0000000000000000  0.1191123438744380
  0.7500000000000000  0.0000000000000000  0.1191123438744380
  0.2500000000000000  0.5000000000000000  0.1191123438744380
  0.7500000000000000  0.5000000000000000  0.1191123438744380
  0.2500000000000000  0.0000000000000000  0.6191123438744380
  0.7500000000000000  0.0000000000000000  0.6191123438744380
  0.2500000000000000  0.5000000000000000  0.6191123438744380
  0.7500000000000000  0.5000000000000000  0.6191123438744380
  0.2500000000000000  0.0000000000000000  0.3808876561255621
  0.7500000000000000  0.0000000000000000  0.3808876561255621
  0.2500000000000000  0.5000000000000000  0.3808876561255621
  0.7500000000000000  0.5000000000000000  0.3808876561255621
  0.2500000000000000  0.0000000000000000  0.8808876561255621
  0.7500000000000000  0.0000000000000000  0.8808876561255621
  0.2500000000000000  0.5000000000000000  0.8808876561255621
  0.7500000000000000  0.5000000000000000  0.8808876561255621
  0.1191123438744379  0.0000000000000000  0.2500000000000000
  0.6191123438744379  0.0000000000000000  0.2500000000000000
  0.1191123438744379  0.5000000000000000  0.2500000000000000
  0.6191123438744379  0.5000000000000000  0.2500000000000000
  0.1191123438744379  0.0000000000000000  0.7500000000000000
  0.6191123438744379  0.0000000000000000  0.7500000000000000
  0.1191123438744379  0.5000000000000000  0.7500000000000000
  0.6191123438744379  0.5000000000000000  0.7500000000000000
  0.3808876561255621  0.0000000000000000  0.2500000000000000
  0.8808876561255621  0.0000000000000000  0.2500000000000000
  0.3808876561255621  0.5000000000000000  0.2500000000000000
  0.8808876561255621  0.5000000000000000  0.2500000000000000
  0.3808876561255621  0.0000000000000000  0.7500000000000000
  0.8808876561255621  0.0000000000000000  0.7500000000000000
  0.3808876561255621  0.5000000000000000  0.7500000000000000
  0.8808876561255621  0.5000000000000000  0.7500000000000000
  0.2500000000000000  0.3691123438744379  0.2500000000000000
  0.7500000000000000  0.3691123438744379  0.2500000000000000
  0.2500000000000000  0.8691123438744379  0.2500000000000000
  0.7500000000000000  0.8691123438744379  0.2500000000000000
  0.2500000000000000  0.3691123438744379  0.7500000000000000
  0.7500000000000000  0.3691123438744379  0.7500000000000000
  0.2500000000000000  0.8691123438744379  0.7500000000000000
  0.7500000000000000  0.8691123438744379  0.7500000000000000
  0.2500000000000000  0.1308876636255645  0.2500000000000000
  0.7500000000000000  0.1308876636255645  0.2500000000000000
  0.2500000000000000  0.6308876636255645  0.2500000000000000
  0.7500000000000000  0.6308876636255645  0.2500000000000000
  0.2500000000000000  0.1308876636255645  0.7500000000000000
  0.7500000000000000  0.1308876636255645  0.7500000000000000
  0.2500000000000000  0.6308876636255645  0.7500000000000000
  0.7500000000000000  0.6308876636255645  0.7500000000000000
  0.2500000000000000  0.2500000000000000  0.3691123438744379
  0.7500000000000000  0.2500000000000000  0.3691123438744379
  0.2500000000000000  0.7500000000000000  0.3691123438744379
  0.7500000000000000  0.7500000000000000  0.3691123438744379
  0.2500000000000000  0.2500000000000000  0.8691123438744379
  0.7500000000000000  0.2500000000000000  0.8691123438744379
  0.2500000000000000  0.7500000000000000  0.8691123438744379
  0.7500000000000000  0.7500000000000000  0.8691123438744379
  0.2500000000000000  0.2500000000000000  0.1308876636255645
  0.7500000000000000  0.2500000000000000  0.1308876636255645
  0.2500000000000000  0.7500000000000000  0.1308876636255645
  0.7500000000000000  0.7500000000000000  0.1308876636255645
  0.2500000000000000  0.2500000000000000  0.6308876636255645
  0.7500000000000000  0.2500000000000000  0.6308876636255645
  0.2500000000000000  0.7500000000000000  0.6308876636255645
  0.7500000000000000  0.7500000000000000  0.6308876636255645
  0.1191123438744380  0.2500000000000000  0.0000000000000000
  0.6191123438744380  0.2500000000000000  0.0000000000000000
  0.1191123438744380  0.7500000000000000  0.0000000000000000
  0.6191123438744380  0.7500000000000000  0.0000000000000000
  0.1191123438744380  0.2500000000000000  0.5000000000000000
  0.6191123438744380  0.2500000000000000  0.5000000000000000
  0.1191123438744380  0.7500000000000000  0.5000000000000000
  0.6191123438744380  0.7500000000000000  0.5000000000000000
  0.3808876561255621  0.2500000000000000  0.0000000000000000
  0.8808876561255621  0.2500000000000000  0.0000000000000000
  0.3808876561255621  0.7500000000000000  0.0000000000000000
  0.8808876561255621  0.7500000000000000  0.0000000000000000
  0.3808876561255621  0.2500000000000000  0.5000000000000000
  0.8808876561255621  0.2500000000000000  0.5000000000000000
  0.3808876561255621  0.7500000000000000  0.5000000000000000
  0.8808876561255621  0.7500000000000000  0.5000000000000000
  0.2500000000000000  0.1191123438744380  0.0000000000000000
  0.7500000000000000  0.1191123438744380  0.0000000000000000
  0.2500000000000000  0.6191123438744380  0.0000000000000000
  0.7500000000000000  0.6191123438744380  0.0000000000000000
  0.2500000000000000  0.1191123438744380  0.5000000000000000
  0.7500000000000000  0.1191123438744380  0.5000000000000000
  0.2500000000000000  0.6191123438744380  0.5000000000000000
  0.7500000000000000  0.6191123438744380  0.5000000000000000
  0.2500000000000000  0.3808876561255621  0.0000000000000000
  0.7500000000000000  0.3808876561255621  0.0000000000000000
  0.2500000000000000  0.8808876561255621  0.0000000000000000
  0.7500000000000000  0.8808876561255621  0.0000000000000000
  0.2500000000000000  0.3808876561255621  0.5000000000000000
  0.7500000000000000  0.3808876561255621  0.5000000000000000
  0.2500000000000000  0.8808876561255621  0.5000000000000000
  0.7500000000000000  0.8808876561255621  0.5000000000000000
